GLPSOL: GLPK LP/MIP Solver, v4.65
Parameter(s) specified in the command line:
 -m knapsack-basic.mod -d knapsack-basic.dat --log knapsack-basic-nomip.log
 --nomip
Reading model section from knapsack-basic.mod...
26 lines were read
Reading data section from knapsack-basic.dat...
32 lines were read
Generating Total_Weight...
Generating Total_Gain...
Model has been successfully generated
GLPK Simplex Optimizer, v4.65
2 rows, 10 columns, 20 non-zeros
Preprocessing...
1 row, 10 columns, 10 non-zeros
Scaling...
 A: min|aij| =  1.130e+01  max|aij| =  2.010e+01  ratio =  1.779e+00
GM: min|aij| =  1.000e+00  max|aij| =  1.000e+00  ratio =  1.000e+00
EQ: min|aij| =  1.000e+00  max|aij| =  1.000e+00  ratio =  1.000e+00
Constructing initial basis...
Size of triangular part is 1
*     0: obj =  -0.000000000e+00 inf =   0.000e+00 (10)
*     5: obj =   1.770248447e+01 inf =   0.000e+00 (0)
OPTIMAL LP SOLUTION FOUND
Time used:   0.0 secs
Memory used: 0.1 Mb (126427 bytes)
Optimal Gain: 17.7025
Total Weight: 60
A: SELECTED
B:
C: SELECTED
D:
E: SELECTED
F:
G:
H: SELECTED
I: SELECTED
J:
Model has been successfully processed
